c b=3,c=561
p cnf 15 34
3 -6 0
2 3 -10 0
1 3 -11 0
3 -15 0
-3 6 0
2 -3 10 0
2 -3 11 0
-3 15 0
2 -5 0
1 2 -9 0
2 -12 0
2 -14 0
1 -2 3 10 0
3 -12 0
1 -2 -3 -10 0
-2 -3 12 0
-2 5 0
1 -2 9 0
1 -2 -11 0
-2 14 0
1 -4 0
1 -8 0
1 -13 0
-1 3 -10 0
2 3 -11 0
-1 -3 10 0
-1 2 9 0
-1 -2 3 11 0
-2 -3 -11 0
-1 -2 -9 0
-1 4 0
-1 8 0
-1 13 0
-7 0
